
Gurobi 9.5.2 (mac64[arm]) logging started Fri Apr 28 18:32:12 2023

Set parameter LogFile to value "Java/output/iterative_model_2_machine/scenario_seed_1_nJob_40_machineCount_2/mip_increment_1/log.txt"
Gurobi Optimizer version 9.5.2 build v9.5.2rc0 (mac64[arm])
Thread count: 8 physical cores, 8 logical processors, using up to 8 threads
Optimize a model with 2071 rows, 13360 columns and 142069 nonzeros
Model fingerprint: 0x1a7637c8
Variable types: 0 continuous, 13360 integer (13360 binary)
Coefficient statistics:
  Matrix range     [1e+00, 2e+02]
  Objective range  [6e+01, 3e+06]
  Bounds range     [1e+00, 1e+00]
  RHS range        [1e+00, 1e+00]
Found heuristic solution: objective 1.676840e+07
Presolve removed 167 rows and 1647 columns
Presolve time: 0.16s
Presolved: 1904 rows, 11713 columns, 124646 nonzeros
Variable types: 0 continuous, 11713 integer (11713 binary)

Root relaxation: objective 6.966230e+03, 1092 iterations, 0.04 seconds (0.10 work units)

    Nodes    |    Current Node    |     Objective Bounds      |     Work
 Expl Unexpl |  Obj  Depth IntInf | Incumbent    BestBd   Gap | It/Node Time

     0     0 6966.23001    0   96 1.6768e+07 6966.23001   100%     -    0s
H    0     0                    3366400.0000 6966.23001   100%     -    0s
H    0     0                    3244672.0000 6966.23001   100%     -    0s
H    0     0                    3241952.0000 6966.23001   100%     -    0s
H    0     0                    2722688.0000 6966.23001   100%     -    0s
H    0     0                    1560304.0000 6967.67790   100%     -    0s
H    0     0                    1540688.0000 6967.67790   100%     -    0s
     0     0 7165.03677    0  119 1540688.00 7165.03677   100%     -    0s
H    0     0                    678080.00000 7165.03677  98.9%     -    0s
H    0     0                    654464.00000 7165.03677  98.9%     -    0s
H    0     0                    654192.00000 7177.90229  98.9%     -    0s
H    0     0                    630560.00000 7177.90229  98.9%     -    0s
     0     0 7177.90229    0  118 630560.000 7177.90229  98.9%     -    0s
     0     0 7177.90229    0  120 630560.000 7177.90229  98.9%     -    0s
     0     0 7832.35617    0  142 630560.000 7832.35617  98.8%     -    0s
     0     0 7832.35617    0  142 630560.000 7832.35617  98.8%     -    0s
     0     0 11193.2865    0  112 630560.000 11193.2865  98.2%     -    0s
     0     0 11373.1095    0  126 630560.000 11373.1095  98.2%     -    1s
     0     0 11406.7392    0  134 630560.000 11406.7392  98.2%     -    1s
     0     0 11411.8963    0  143 630560.000 11411.8963  98.2%     -    1s
     0     0 11413.6707    0  141 630560.000 11413.6707  98.2%     -    1s
     0     0 11413.6707    0  141 630560.000 11413.6707  98.2%     -    1s
     0     0 12274.6063    0  164 630560.000 12274.6063  98.1%     -    1s
H    0     0                    630528.00000 12274.6063  98.1%     -    1s
     0     0 12478.9483    0  160 630528.000 12478.9483  98.0%     -    1s
     0     0 12515.8660    0  160 630528.000 12515.8660  98.0%     -    1s
     0     0 12518.2246    0  170 630528.000 12518.2246  98.0%     -    1s
     0     0 12518.3375    0  170 630528.000 12518.3375  98.0%     -    1s
     0     0 12617.0703    0  169 630528.000 12617.0703  98.0%     -    1s
H    0     0                    193328.00000 12617.0703  93.5%     -    1s
     0     0 12620.8058    0  162 193328.000 12620.8058  93.5%     -    1s
     0     0 12621.6122    0  183 193328.000 12621.6122  93.5%     -    1s
     0     0 13077.8735    0  138 193328.000 13077.8735  93.2%     -    1s
H    0     0                    160080.00000 13077.8735  91.8%     -    1s
     0     0 13077.8735    0   96 160080.000 13077.8735  91.8%     -    1s
H    0     0                    147584.00000 13077.8735  91.1%     -    1s
     0     0 13077.8735    0  106 147584.000 13077.8735  91.1%     -    1s
     0     0 13077.8735    0  153 147584.000 13077.8735  91.1%     -    2s
     0     0 13077.8735    0  139 147584.000 13077.8735  91.1%     -    2s
     0     0 13077.8735    0  157 147584.000 13077.8735  91.1%     -    2s
     0     0 13078.4502    0  153 147584.000 13078.4502  91.1%     -    2s
     0     0 13078.5721    0  145 147584.000 13078.5721  91.1%     -    2s
     0     0 13311.0965    0  155 147584.000 13311.0965  91.0%     -    2s
     0     0 13331.7102    0  163 147584.000 13331.7102  91.0%     -    2s
     0     0 13333.4077    0  150 147584.000 13333.4077  91.0%     -    2s
H    0     0                    133360.00000 13333.4077  90.0%     -    2s
     0     0 13633.6900    0  173 133360.000 13633.6900  89.8%     -    2s
H    0     0                    16400.000000 13633.6900  16.9%     -    2s
     0     0 13666.6573    0  153 16400.0000 13666.6573  16.7%     -    2s
     0     0 13666.7505    0  142 16400.0000 13666.7505  16.7%     -    2s
     0     0 13740.6897    0   56 16400.0000 13740.6897  16.2%     -    2s
     0     0 13740.6897    0   79 16400.0000 13740.6897  16.2%     -    2s
     0     0 13740.6897    0   76 16400.0000 13740.6897  16.2%     -    2s
H    0     0                    16384.000000 13740.6897  16.1%     -    2s
     0     0 13740.6897    0   53 16384.0000 13740.6897  16.1%     -    2s
     0     0 13741.8716    0   47 16384.0000 13741.8716  16.1%     -    2s
     0     0 13741.8716    0   47 16384.0000 13741.8716  16.1%     -    2s
     0     0 13748.9816    0   60 16384.0000 13748.9816  16.1%     -    2s
     0     0 13818.5824    0  110 16384.0000 13818.5824  15.7%     -    2s
     0     0 13861.5652    0   62 16384.0000 13861.5652  15.4%     -    2s
     0     0 13861.5652    0   61 16384.0000 13861.5652  15.4%     -    2s
     0     0 13924.2566    0  129 16384.0000 13924.2566  15.0%     -    2s
     0     0 13932.9424    0   76 16384.0000 13932.9424  15.0%     -    2s
     0     0 13932.9424    0   78 16384.0000 13932.9424  15.0%     -    2s
     0     0 14003.1611    0  119 16384.0000 14003.1611  14.5%     -    2s
H    0     0                    15456.000000 14003.1611  9.40%     -    2s
     0     0 14063.1035    0  133 15456.0000 14063.1035  9.01%     -    2s
     0     0 14068.6375    0  136 15456.0000 14068.6375  8.98%     -    2s
     0     0 14070.1935    0   76 15456.0000 14070.1935  8.97%     -    2s
     0     0 14077.3333    0   65 15456.0000 14077.3333  8.92%     -    2s
     0     0 14077.3333    0   90 15456.0000 14077.3333  8.92%     -    2s
     0     0 14087.5294    0   67 15456.0000 14087.5294  8.85%     -    2s
     0     0 14089.3793    0   58 15456.0000 14089.3793  8.84%     -    2s
     0     0 14089.3793    0   63 15456.0000 14089.3793  8.84%     -    2s
     0     0 14092.9524    0   66 15456.0000 14092.9524  8.82%     -    2s
     0     0 14092.9524    0   59 15456.0000 14092.9524  8.82%     -    2s
H    0     0                    14096.000000 14096.0000  0.00%     -    2s
     0     0 14096.0000    0   59 14096.0000 14096.0000  0.00%     -    2s

Cutting planes:
  Cover: 1
  Clique: 30
  MIR: 21
  StrongCG: 6
  GUB cover: 44
  Zero half: 14
  RLT: 3

Explored 1 nodes (15778 simplex iterations) in 2.72 seconds (4.30 work units)
Thread count was 8 (of 8 available processors)

Solution count 10: 14096 15456 16384 ... 630528

Optimal solution found (tolerance 1.00e-04)
Best objective 1.409600000000e+04, best bound 1.409600000000e+04, gap 0.0000%

Gurobi 9.5.2 (mac64[arm]) logging started Fri Apr 28 18:32:15 2023

Set parameter LogFile to value "Java/output/iterative_model_2_machine/scenario_seed_1_nJob_40_machineCount_2/mip_increment_1/log.txt"
Gurobi Optimizer version 9.5.2 build v9.5.2rc0 (mac64[arm])
Thread count: 8 physical cores, 8 logical processors, using up to 8 threads
Optimize a model with 2071 rows, 10435 columns and 121182 nonzeros
Model fingerprint: 0x202035b8
Variable types: 0 continuous, 10435 integer (10435 binary)
Coefficient statistics:
  Matrix range     [1e+00, 2e+02]
  Objective range  [1e+02, 5e+05]
  Bounds range     [1e+00, 1e+00]
  RHS range        [1e+00, 1e+00]
Found heuristic solution: objective 2154300.0000
Presolve removed 591 rows and 1315 columns
Presolve time: 0.14s
Presolved: 1480 rows, 9120 columns, 104758 nonzeros
Variable types: 0 continuous, 9120 integer (9118 binary)
Found heuristic solution: objective 1065332.0000

Root relaxation: objective 3.500155e+03, 1736 iterations, 0.08 seconds (0.19 work units)

    Nodes    |    Current Node    |     Objective Bounds      |     Work
 Expl Unexpl |  Obj  Depth IntInf | Incumbent    BestBd   Gap | It/Node Time

     0     0 3500.15544    0  107 1065332.00 3500.15544   100%     -    0s
H    0     0                    968312.00000 3500.15544   100%     -    0s
H    0     0                    881544.00000 3500.15544   100%     -    0s
H    0     0                    170620.00000 3500.15544  97.9%     -    0s
     0     0 3509.50817    0  149 170620.000 3509.50817  97.9%     -    0s
H    0     0                    14972.000000 3509.50817  76.6%     -    0s
     0     0 3516.20612    0  182 14972.0000 3516.20612  76.5%     -    0s
     0     0 3516.20612    0  112 14972.0000 3516.20612  76.5%     -    0s
H    0     0                    4712.0000000 3516.20612  25.4%     -    0s
     0     0 3516.20612    0  185 4712.00000 3516.20612  25.4%     -    0s
     0     0 3516.85652    0  193 4712.00000 3516.85652  25.4%     -    1s
     0     0 3516.87435    0  200 4712.00000 3516.87435  25.4%     -    1s
     0     0 3522.65512    0  204 4712.00000 3522.65512  25.2%     -    1s
H    0     0                    4708.0000000 3522.65512  25.2%     -    1s
     0     0 3523.08298    0  210 4708.00000 3523.08298  25.2%     -    1s
     0     0 3523.09018    0  211 4708.00000 3523.09018  25.2%     -    1s
H    0     0                    4640.0000000 3523.09018  24.1%     -    1s
     0     0 3532.10388    0  235 4640.00000 3532.10388  23.9%     -    1s
     0     0 3535.26537    0  252 4640.00000 3535.26537  23.8%     -    1s
     0     0 3535.56886    0  255 4640.00000 3535.56886  23.8%     -    1s
     0     0 3535.75722    0  253 4640.00000 3535.75722  23.8%     -    1s
     0     0 3535.77738    0  259 4640.00000 3535.77738  23.8%     -    1s
H    0     0                    4632.0000000 3535.77738  23.7%     -    1s
     0     0 3535.78144    0  260 4632.00000 3535.78144  23.7%     -    1s
     0     0 3541.23883    0  270 4632.00000 3541.23883  23.5%     -    1s
     0     0 3543.68008    0  290 4632.00000 3543.68008  23.5%     -    1s
     0     0 3544.41669    0  294 4632.00000 3544.41669  23.5%     -    1s
     0     0 3545.06896    0  306 4632.00000 3545.06896  23.5%     -    1s
     0     0 3545.40812    0  300 4632.00000 3545.40812  23.5%     -    1s
     0     0 3545.48391    0  306 4632.00000 3545.48391  23.5%     -    2s
     0     0 3545.49566    0  309 4632.00000 3545.49566  23.5%     -    2s
     0     0 3547.20193    0  304 4632.00000 3547.20193  23.4%     -    2s
     0     0 3548.52056    0  311 4632.00000 3548.52056  23.4%     -    2s
     0     0 3548.65173    0  317 4632.00000 3548.65173  23.4%     -    2s
     0     0 3548.74811    0  317 4632.00000 3548.74811  23.4%     -    2s
     0     0 3548.76808    0  322 4632.00000 3548.76808  23.4%     -    2s
     0     0 3551.11501    0  315 4632.00000 3551.11501  23.3%     -    2s
     0     0 3551.56833    0  324 4632.00000 3551.56833  23.3%     -    2s
     0     0 3551.84104    0  324 4632.00000 3551.84104  23.3%     -    2s
     0     0 3551.94402    0  326 4632.00000 3551.94402  23.3%     -    2s
     0     0 3551.98292    0  337 4632.00000 3551.98292  23.3%     -    2s
     0     0 3553.30494    0  315 4632.00000 3553.30494  23.3%     -    2s
H    0     0                    3668.0000000 3553.30494  3.13%     -    2s
     0     0 3553.65121    0  308 3668.00000 3553.65121  3.12%     -    2s
     0     0 3553.82856    0  313 3668.00000 3553.82856  3.11%     -    2s
     0     0 3553.96704    0  326 3668.00000 3553.96704  3.11%     -    2s
     0     0 3553.97947    0  336 3668.00000 3553.97947  3.11%     -    2s
     0     0 3556.06856    0  333 3668.00000 3556.06856  3.05%     -    2s
     0     0 3556.44238    0  341 3668.00000 3556.44238  3.04%     -    2s
     0     0 3556.52631    0  346 3668.00000 3556.52631  3.04%     -    2s
     0     0 3556.54775    0  350 3668.00000 3556.54775  3.04%     -    2s
     0     0 3556.86623    0  347 3668.00000 3556.86623  3.03%     -    2s
     0     0 3556.95233    0  352 3668.00000 3556.95233  3.03%     -    2s
     0     0 3557.07445    0  343 3668.00000 3557.07445  3.02%     -    3s
     0     0 3557.08540    0  344 3668.00000 3557.08540  3.02%     -    3s
     0     0 3557.33116    0  332 3668.00000 3557.33116  3.02%     -    3s
     0     0 3557.33116    0  320 3668.00000 3557.33116  3.02%     -    3s
     0     0 3557.33784    0  122 3668.00000 3557.33784  3.02%     -    3s
H    0     0                    3664.0000000 3557.33784  2.91%     -    3s
     0     0 3557.33784    0  204 3664.00000 3557.33784  2.91%     -    3s
     0     0 3557.33784    0  248 3664.00000 3557.33784  2.91%     -    3s
     0     0 3557.33784    0  267 3664.00000 3557.33784  2.91%     -    3s
     0     0 3557.45364    0  298 3664.00000 3557.45364  2.91%     -    3s
     0     0 3558.18093    0  318 3664.00000 3558.18093  2.89%     -    3s
     0     0 3558.32299    0  315 3664.00000 3558.32299  2.88%     -    3s
     0     0 3558.40569    0  306 3664.00000 3558.40569  2.88%     -    3s
     0     0 3558.42220    0  304 3664.00000 3558.42220  2.88%     -    3s
     0     0 3558.42256    0  308 3664.00000 3558.42256  2.88%     -    3s
     0     0 3559.24169    0  309 3664.00000 3559.24169  2.86%     -    3s
     0     0 3559.32361    0  303 3664.00000 3559.32361  2.86%     -    3s
     0     0 3560.50963    0  317 3664.00000 3560.50963  2.82%     -    3s
H    0     0                    3660.0000000 3560.50963  2.72%     -    3s
     0     0 3560.78104    0  335 3660.00000 3560.78104  2.71%     -    3s
     0     0 3560.80000    0  331 3660.00000 3560.80000  2.71%     -    3s
     0     0 3561.15177    0  324 3660.00000 3561.15177  2.70%     -    3s
     0     0 3561.24149    0  327 3660.00000 3561.24149  2.70%     -    3s
     0     0 3561.26494    0  332 3660.00000 3561.26494  2.70%     -    3s
     0     0 3561.42770    0  330 3660.00000 3561.42770  2.69%     -    4s
     0     0 3561.42770    0  330 3660.00000 3561.42770  2.69%     -    4s
     0     2 3561.44743    0  328 3660.00000 3561.44743  2.69%     -    4s
H   33    34                    3656.0000000 3568.73504  2.39%   559    4s
H   67    65                    3652.0000000 3570.44666  2.23%   470    4s
    74    74 3579.21700    7  163 3652.00000 3570.58708  2.23%   446    5s
H   75    74                    3616.0000000 3570.58708  1.26%   440    5s
H   98    99                    3608.0000000 3570.58708  1.04%   404    5s
H  243   164                    3592.0000000 3570.58708  0.60%   295    5s
H  300   176                    3588.0000000 3573.22486  0.41%   261    5s
*  705   100              20    3584.0000000 3580.08168  0.11%   175    6s

Cutting planes:
  Cover: 7
  Clique: 55
  MIR: 128
  StrongCG: 44
  GUB cover: 67
  Inf proof: 1
  Zero half: 9
  Mod-K: 1
  RLT: 2

Explored 763 nodes (152160 simplex iterations) in 6.26 seconds (12.29 work units)
Thread count was 8 (of 8 available processors)

Solution count 10: 3584 3588 3592 ... 3668

Optimal solution found (tolerance 1.00e-04)
Best objective 3.584000000001e+03, best bound 3.584000000001e+03, gap 0.0000%

Gurobi 9.5.2 (mac64[arm]) logging started Fri Apr 28 18:32:22 2023

Set parameter LogFile to value "Java/output/iterative_model_2_machine/scenario_seed_1_nJob_40_machineCount_2/mip_increment_1/log.txt"
Gurobi Optimizer version 9.5.2 build v9.5.2rc0 (mac64[arm])
Thread count: 8 physical cores, 8 logical processors, using up to 8 threads
Optimize a model with 2074 rows, 7739 columns and 88125 nonzeros
Model fingerprint: 0x78f3f3cc
Variable types: 0 continuous, 7739 integer (7739 binary)
Coefficient statistics:
  Matrix range     [1e+00, 2e+02]
  Objective range  [8e+01, 7e+04]
  Bounds range     [1e+00, 1e+00]
  RHS range        [1e+00, 1e+00]
Presolve removed 1104 rows and 1697 columns
Presolve time: 0.11s
Presolved: 970 rows, 6042 columns, 66092 nonzeros
Variable types: 0 continuous, 6042 integer (6040 binary)

Root relaxation: objective 1.876209e+03, 1835 iterations, 0.07 seconds (0.14 work units)

    Nodes    |    Current Node    |     Objective Bounds      |     Work
 Expl Unexpl |  Obj  Depth IntInf | Incumbent    BestBd   Gap | It/Node Time

     0     0 1876.20879    0  105          - 1876.20879      -     -    0s
H    0     0                    63919.000000 1876.20879  97.1%     -    0s
H    0     0                    48224.000000 1876.20879  96.1%     -    0s
H    0     0                    41503.000000 1876.20879  95.5%     -    0s
H    0     0                    2438.0000000 1876.20879  23.0%     -    0s
     0     0 1879.02391    0  138 2438.00000 1879.02391  22.9%     -    0s
     0     0 1879.02391    0  108 2438.00000 1879.02391  22.9%     -    0s
H    0     0                    2308.0000000 1879.02391  18.6%     -    0s
H    0     0                    2102.0000000 1879.02391  10.6%     -    0s
H    0     0                    1943.0000000 1879.02391  3.29%     -    0s
     0     0 1880.79269    0  145 1943.00000 1880.79269  3.20%     -    0s
     0     0 1882.77628    0  144 1943.00000 1882.77628  3.10%     -    0s
     0     0 1882.80610    0  149 1943.00000 1882.80610  3.10%     -    0s
     0     0 1882.80610    0  150 1943.00000 1882.80610  3.10%     -    0s
H    0     0                    1932.0000000 1882.80610  2.55%     -    0s
     0     0 1891.47683    0  161 1932.00000 1891.47683  2.10%     -    0s
     0     0 1891.86683    0  168 1932.00000 1891.86683  2.08%     -    0s
     0     0 1891.87852    0  176 1932.00000 1891.87852  2.08%     -    0s
     0     0 1891.88645    0  170 1932.00000 1891.88645  2.08%     -    0s
     0     0 1895.42212    0  180 1932.00000 1895.42212  1.89%     -    0s
     0     0 1896.25669    0  181 1932.00000 1896.25669  1.85%     -    0s
     0     0 1896.26225    0  185 1932.00000 1896.26225  1.85%     -    0s
     0     0 1898.46671    0  198 1932.00000 1898.46671  1.74%     -    1s
     0     0 1898.88517    0  222 1932.00000 1898.88517  1.71%     -    1s
     0     0 1898.90282    0  227 1932.00000 1898.90282  1.71%     -    1s
     0     0 1898.90799    0  227 1932.00000 1898.90799  1.71%     -    1s
H    0     0                    1931.0000000 1898.90799  1.66%     -    1s
     0     0 1899.67358    0  202 1931.00000 1899.67358  1.62%     -    1s
H    0     0                    1916.0000000 1899.67358  0.85%     -    1s
     0     0 1899.75812    0  209 1916.00000 1899.75812  0.85%     -    1s
     0     0 1899.76422    0  214 1916.00000 1899.76422  0.85%     -    1s
     0     0 1900.10507    0  212 1916.00000 1900.10507  0.83%     -    1s
     0     0 1900.12950    0  213 1916.00000 1900.12950  0.83%     -    1s
     0     0 1900.12959    0  218 1916.00000 1900.12959  0.83%     -    1s
     0     0 1900.19438    0  210 1916.00000 1900.19438  0.82%     -    1s
     0     0 1900.19438    0  106 1916.00000 1900.19438  0.82%     -    1s
H    0     0                    1915.0000000 1900.19438  0.77%     -    1s
     0     0 1900.19438    0  165 1915.00000 1900.19438  0.77%     -    1s
     0     0 1900.19438    0  162 1915.00000 1900.19438  0.77%     -    1s
H    0     0                    1914.0000000 1900.19438  0.72%     -    1s
     0     0 1900.19438    0  184 1914.00000 1900.19438  0.72%     -    1s
     0     0 1900.20638    0  198 1914.00000 1900.20638  0.72%     -    1s
     0     0 1900.45635    0  196 1914.00000 1900.45635  0.71%     -    1s
     0     0 1900.47798    0  200 1914.00000 1900.47798  0.71%     -    1s
     0     0 1900.48647    0  197 1914.00000 1900.48647  0.71%     -    1s
     0     0 1900.48647    0  198 1914.00000 1900.48647  0.71%     -    1s
     0     0 1900.74257    0  204 1914.00000 1900.74257  0.69%     -    1s
     0     0 1900.75474    0  200 1914.00000 1900.75474  0.69%     -    1s
     0     0 1900.75474    0  200 1914.00000 1900.75474  0.69%     -    1s
     0     0 1901.08233    0  212 1914.00000 1901.08233  0.67%     -    1s
     0     0 1901.18423    0  214 1914.00000 1901.18423  0.67%     -    1s
     0     0 1901.19440    0  212 1914.00000 1901.19440  0.67%     -    1s
     0     0 1901.36672    0  209 1914.00000 1901.36672  0.66%     -    1s
     0     0 1901.42160    0  216 1914.00000 1901.42160  0.66%     -    1s
     0     0 1901.42484    0  211 1914.00000 1901.42484  0.66%     -    1s
     0     0 1901.44812    0  215 1914.00000 1901.44812  0.66%     -    1s
     0     0 1901.44812    0  203 1914.00000 1901.44812  0.66%     -    1s
     0     2 1901.45226    0  202 1914.00000 1901.45226  0.66%     -    1s
H   59    45                    1910.0000000 1902.42952  0.40%   219    1s
H   74    47                    1908.0000000 1902.42952  0.29%   203    2s
H  119    46                    1907.0000000 1902.42952  0.24%   157    2s

Cutting planes:
  Gomory: 1
  Cover: 19
  Clique: 46
  MIR: 55
  StrongCG: 31
  GUB cover: 77
  Zero half: 12
  Mod-K: 1
  RLT: 7

Explored 222 nodes (38971 simplex iterations) in 2.13 seconds (3.50 work units)
Thread count was 8 (of 8 available processors)

Solution count 10: 1907 1908 1910 ... 2102

Optimal solution found (tolerance 1.00e-04)
Best objective 1.907000000000e+03, best bound 1.907000000000e+03, gap 0.0000%

Gurobi 9.5.2 (mac64[arm]) logging started Fri Apr 28 18:32:24 2023

Set parameter LogFile to value "Java/output/iterative_model_2_machine/scenario_seed_1_nJob_40_machineCount_2/mip_increment_1/log.txt"
Gurobi Optimizer version 9.5.2 build v9.5.2rc0 (mac64[arm])
Thread count: 8 physical cores, 8 logical processors, using up to 8 threads
Optimize a model with 2208 rows, 40748 columns and 458772 nonzeros
Model fingerprint: 0x50420832
Variable types: 0 continuous, 40748 integer (40748 binary)
Coefficient statistics:
  Matrix range     [1e+00, 2e+02]
  Objective range  [2e+00, 3e+06]
  Bounds range     [1e+00, 1e+00]
  RHS range        [1e+00, 1e+00]

Warning: Completing partial solution with 40626 unfixed non-continuous variables out of 40748
User MIP start produced solution with objective 19295 (0.03s)
Loaded user MIP start with objective 19295

Presolve removed 117 rows and 5206 columns
Presolve time: 0.50s
Presolved: 2091 rows, 35542 columns, 401120 nonzeros
Variable types: 0 continuous, 35542 integer (35538 binary)

Root simplex log...

Iteration    Objective       Primal Inf.    Dual Inf.      Time
   28484    1.1517949e+04   2.555870e+03   0.000000e+00      5s
   30373    1.1520452e+04   0.000000e+00   0.000000e+00      5s

Root relaxation: objective 1.152045e+04, 30373 iterations, 4.90 seconds (12.29 work units)

    Nodes    |    Current Node    |     Objective Bounds      |     Work
 Expl Unexpl |  Obj  Depth IntInf | Incumbent    BestBd   Gap | It/Node Time

     0     0 11520.4516    0  538 19295.0000 11520.4516  40.3%     -    5s
H    0     0                    19279.000000 11520.4516  40.2%     -    5s
     0     0 13375.7192    0  579 19279.0000 13375.7192  30.6%     -   12s
H    0     0                    19265.000000 13375.7192  30.6%     -   12s
     0     0 13395.9016    0  589 19265.0000 13395.9016  30.5%     -   13s
     0     0 13395.9016    0  572 19265.0000 13395.9016  30.5%     -   13s
     0     0 17349.4727    0  511 19265.0000 17349.4727  9.94%     -   17s
     0     0 17349.4727    0  433 19265.0000 17349.4727  9.94%     -   20s
H    0     0                    19252.000000 17349.4727  9.88%     -   20s
     0     0 18100.3265    0  485 19252.0000 18100.3265  5.98%     -   23s
     0     0 18116.0859    0  527 19252.0000 18116.0859  5.90%     -   24s
     0     0 18116.1380    0  523 19252.0000 18116.1380  5.90%     -   24s
     0     0 18153.4658    0  593 19252.0000 18153.4658  5.71%     -   26s
     0     0 18166.2083    0  608 19252.0000 18166.2083  5.64%     -   27s
     0     0 18166.3858    0  604 19252.0000 18166.3858  5.64%     -   27s
     0     0 18207.7634    0  621 19252.0000 18207.7634  5.42%     -   31s
     0     0 18212.4313    0  663 19252.0000 18212.4313  5.40%     -   32s
     0     0 18213.0247    0  687 19252.0000 18213.0247  5.40%     -   32s
     0     0 18213.0761    0  689 19252.0000 18213.0761  5.40%     -   32s
     0     0 18308.2568    0  653 19252.0000 18308.2568  4.90%     -   36s
H    0     0                    19099.000000 18308.2568  4.14%     -   36s
     0     0 18318.5058    0  651 19099.0000 18318.5058  4.09%     -   37s
     0     0 18318.9885    0  684 19099.0000 18318.9885  4.08%     -   37s
     0     0 18428.3774    0  755 19099.0000 18428.3774  3.51%     -   43s
     0     0 18439.2990    0  753 19099.0000 18439.2990  3.45%     -   45s
     0     0 18440.2270    0  777 19099.0000 18440.2270  3.45%     -   45s
     0     0 18440.2860    0  762 19099.0000 18440.2860  3.45%     -   46s
     0     0 18485.4916    0  767 19099.0000 18485.4916  3.21%     -   48s
H    0     0                    19090.000000 18485.4916  3.17%     -   48s
     0     0 18490.4701    0  782 19090.0000 18490.4701  3.14%     -   50s
H    0     0                    19080.000000 18490.4701  3.09%     -   51s
     0     0 18492.0033    0  806 19080.0000 18492.0033  3.08%     -   51s
     0     0 18492.1672    0  814 19080.0000 18492.1672  3.08%     -   51s
     0     0 18534.2694    0  843 19080.0000 18534.2694  2.86%     -   53s
H    0     0                    18939.000000 18534.2694  2.14%     -   53s
     0     0 18538.3269    0  851 18939.0000 18538.3269  2.12%     -   55s
     0     0 18539.0283    0  854 18939.0000 18539.0283  2.11%     -   55s
     0     0 18574.3688    0  858 18939.0000 18574.3688  1.93%     -   58s
H    0     0                    18929.000000 18574.3688  1.87%     -   58s
     0     0 18582.2650    0  874 18929.0000 18582.2650  1.83%     -   60s
     0     0 18583.1459    0  890 18929.0000 18583.1459  1.83%     -   60s
     0     0 18609.5600    0  857 18929.0000 18609.5600  1.69%     -   64s
     0     0 18617.7060    0  914 18929.0000 18617.7060  1.64%     -   66s
     0     0 18618.7043    0  943 18929.0000 18618.7043  1.64%     -   66s
     0     0 18621.8128    0  907 18929.0000 18621.8128  1.62%     -   68s
     0     0 18623.7420    0  950 18929.0000 18623.7420  1.61%     -   69s
     0     0 18624.0229    0  952 18929.0000 18624.0229  1.61%     -   70s
     0     0 18628.5487    0  924 18929.0000 18628.5487  1.59%     -   71s
     0     0 18628.5487    0  907 18929.0000 18628.5487  1.59%     -   73s
     0     0 18628.5834    0  297 18929.0000 18628.5834  1.59%     -   81s
H    0     0                    18928.000000 18628.5834  1.58%     -   81s
     0     0 18628.5834    0  555 18928.0000 18628.5834  1.58%     -   83s
     0     0 18628.5834    0  696 18928.0000 18628.5834  1.58%     -   85s
     0     0 18628.5834    0  753 18928.0000 18628.5834  1.58%     -   87s
     0     0 18645.2562    0  774 18928.0000 18645.2562  1.49%     -   89s
     0     0 18647.1948    0  829 18928.0000 18647.1948  1.48%     -   89s
     0     0 18647.9410    0  817 18928.0000 18647.9410  1.48%     -   90s
     0     0 18648.0703    0  817 18928.0000 18648.0703  1.48%     -   90s
     0     0 18648.0907    0  822 18928.0000 18648.0907  1.48%     -   90s
     0     0 18652.3645    0  850 18928.0000 18652.3645  1.46%     -   91s
     0     0 18653.6751    0  828 18928.0000 18653.6751  1.45%     -   92s
     0     0 18653.8737    0  852 18928.0000 18653.8737  1.45%     -   92s
H    0     0                    18927.000000 18653.8737  1.44%     -   93s
     0     0 18656.4837    0  875 18927.0000 18656.4837  1.43%     -   93s
     0     0 18656.4837    0  862 18927.0000 18656.4837  1.43%     -   94s
     0     2 18656.5099    0  853 18927.0000 18656.5099  1.43%     -   99s
     1     4 18670.9411    1  839 18927.0000 18656.5099  1.43%  5209  102s
     3     8 18728.0155    2  813 18927.0000 18657.0002  1.43%  3795  105s
    23    26 18756.9255    5  856 18927.0000 18661.0400  1.41%  3719  111s
H   31    34                    18891.000000 18661.0405  1.22%  3491  114s
H   33    34                    18820.000000 18661.0405  0.84%  3553  114s
    39    42 18772.7212    7  844 18820.0000 18661.0405  0.84%  3920  115s
    64    61 infeasible    9      18820.0000 18661.0405  0.84%  3441  122s
H   66    61                    18802.000000 18661.0405  0.75%  3344  122s
H   69    61                    18796.000000 18661.0405  0.72%  3330  122s
H   73    66                    18795.000000 18661.0405  0.71%  3238  124s
H   74    66                    18788.000000 18661.0405  0.68%  3231  124s
H   78    66                    18787.000000 18661.0405  0.67%  3131  124s
    82    74 18670.5451   10  764 18787.0000 18661.0405  0.67%  3216  126s
H  105    96                    18763.000000 18661.0405  0.54%  3128  130s
   139   132 18676.2478   17  734 18763.0000 18661.0405  0.54%  3145  136s
H  143   132                    18762.000000 18661.0405  0.54%  3169  136s
H  146   132                    18758.000000 18661.0405  0.52%  3142  136s
H  151   132                    18755.000000 18661.0405  0.50%  3145  136s
H  156   139                    18743.000000 18661.0405  0.44%  3102  139s
   165   154 18685.2306   20  742 18743.0000 18661.0405  0.44%  3070  141s
   180   161     cutoff   22      18743.0000 18661.0405  0.44%  3154  145s
H  181   161                    18734.000000 18661.0405  0.39%  3136  145s
   224   187     cutoff   26      18734.0000 18661.0405  0.39%  3171  152s
H  232   187                    18733.000000 18661.0405  0.38%  3192  152s
   240   204 18714.1181   26  659 18733.0000 18661.0405  0.38%  3128  156s
   275   235 18730.8670   31  542 18733.0000 18661.6054  0.38%  3150  161s
   299   258 18678.3191    6  636 18733.0000 18661.6054  0.38%  3164  165s
   345   298 18695.7195    9  592 18733.0000 18661.6054  0.38%  3159  171s
   396   344 18727.3652   16  419 18733.0000 18662.4936  0.38%  3144  178s
   439   365 18684.1531    8  782 18733.0000 18662.4936  0.38%  3035  180s
H  466   374                    18731.000000 18662.4936  0.37%  3004  186s
H  472   374                    18728.000000 18662.4936  0.35%  2993  186s
   475   388 18687.7541   10  739 18728.0000 18662.4936  0.35%  3000  190s
   534   438 18713.5633   17  626 18728.0000 18662.4936  0.35%  2967  196s
   607   459 18667.2422    7  703 18728.0000 18663.7731  0.34%  2930  203s
   629   482 18668.9914    8  731 18728.0000 18663.7731  0.34%  2933  206s
   662   516 18670.3510    9  683 18728.0000 18663.7731  0.34%  2942  210s
   763   585 18667.2900   10  685 18728.0000 18663.7731  0.34%  2836  217s
   803   597 18667.8683   12  676 18728.0000 18663.7731  0.34%  2832  224s
   817   621 18676.1239   12  630 18728.0000 18663.7731  0.34%  2838  228s
   878   650 18668.3298   14  678 18728.0000 18663.7731  0.34%  2788  232s
   921   689 18669.0828   15  635 18728.0000 18663.7731  0.34%  2788  236s
   968   733 18687.4875   17  596 18728.0000 18663.7731  0.34%  2790  240s
  1014   777 18678.9060   19  640 18728.0000 18663.7731  0.34%  2794  245s
  1143   849 18685.4052   23  607 18728.0000 18663.7731  0.34%  2753  254s
  1200   882 18698.2859   26  601 18728.0000 18663.7731  0.34%  2760  260s
  1269   909 18694.8511   28  550 18728.0000 18663.7731  0.34%  2733  266s
  1366   935 18698.4770   29  520 18728.0000 18663.7731  0.34%  2683  272s
  1430   986 18699.7934   32  535 18728.0000 18663.7731  0.34%  2695  278s
  1516   987 18704.6807   15  511 18728.0000 18663.7731  0.34%  2677  287s
  1520   990 18721.5230   43  589 18728.0000 18663.7731  0.34%  2670  290s
  1532   998 18713.7148   39  796 18728.0000 18663.7731  0.34%  2649  295s
  1540  1003 18672.4120   13  932 18728.0000 18670.2334  0.31%  2635  300s
  1549  1009 18698.6438   11 1001 18728.0000 18674.5912  0.29%  2620  305s
  1562  1018 18690.7664   24 1025 18728.0000 18677.2311  0.27%  2598  310s
  1572  1024 18716.9329   38 1051 18728.0000 18678.1358  0.27%  2581  315s
  1588  1035 18679.1465   10 1105 18728.0000 18679.1465  0.26%  2555  320s
  1602  1044 18706.3664   21 1134 18728.0000 18679.7829  0.26%  2533  325s
  1620  1056 18721.5230   43 1142 18728.0000 18680.2201  0.26%  2505  330s
  1637  1068 18682.3085    9 1146 18728.0000 18680.9625  0.25%  2479  335s
  1652  1078 18696.3380   19 1143 18728.0000 18681.2039  0.25%  2456  343s
  1658  1082 18711.0613   19 1133 18728.0000 18681.2315  0.25%  2448  345s
  1678  1095 18705.4682   24 1182 18728.0000 18681.4951  0.25%  2418  350s
  1696  1107 18713.0353   26 1197 18728.0000 18681.6617  0.25%  2393  355s
  1712  1118 18690.5864   16 1196 18728.0000 18682.3539  0.24%  2370  360s
  1729  1129 18725.8327   31 1165 18728.0000 18682.8488  0.24%  2347  365s
  1735  1133 18682.8527    9 1156 18728.0000 18682.8527  0.24%  2339  370s
  1736  1137 18684.8523   13 1014 18728.0000 18682.8527  0.24%  2429  376s
  1738  1140 18685.8470   14  988 18728.0000 18684.8523  0.23%  2433  380s
  1750  1152 18692.7033   16  945 18728.0000 18687.1391  0.22%  2475  392s
  1758  1157 18693.7436   16  964 18728.0000 18687.1391  0.22%  2497  398s
  1766  1159 18696.3002   17  928 18728.0000 18689.9579  0.20%  2514  403s
  1774  1164 18693.3010   17  934 18728.0000 18689.9579  0.20%  2532  406s
  1782  1169 18699.1418   18  855 18728.0000 18690.4380  0.20%  2542  411s
  1790  1175 18707.8516   18  900 18728.0000 18690.4380  0.20%  2563  416s
  1806  1185 18722.2953   19  917 18728.0000 18690.6099  0.20%  2602  425s
  1814  1191 18704.7924   20  936 18728.0000 18690.8917  0.20%  2630  430s
  1822  1197 18702.7794   20  932 18728.0000 18690.8917  0.20%  2642  435s
  1831  1203 18705.8864   21  867 18728.0000 18690.8917  0.20%  2669  440s
  1848  1210 18706.0812   22  880 18728.0000 18690.8917  0.20%  2697  447s
  1863  1212 18707.0182   23  920 18728.0000 18690.8917  0.20%  2707  454s
  1874  1215 18710.6911   24  910 18728.0000 18690.8917  0.20%  2743  459s
  1882  1222     cutoff   25      18728.0000 18690.8917  0.20%  2771  465s
  1894  1228 18709.7680   25  863 18728.0000 18690.8917  0.20%  2800  470s
  1904  1236 18711.1424   26  878 18728.0000 18690.8917  0.20%  2812  479s
  1921  1242 18720.6756   27  802 18728.0000 18690.8917  0.20%  2840  484s
  1935  1252 18712.2110   27  855 18728.0000 18690.8917  0.20%  2860  493s
  1953  1257 18714.8418   29  824 18728.0000 18690.8917  0.20%  2883  497s
  1972  1271 18721.2802   30  852 18728.0000 18690.8917  0.20%  2911  502s
  1994  1270 18719.4385   32  824 18728.0000 18690.8917  0.20%  2930  509s
H 2001  1206                    18727.000000 18690.8917  0.19%  2928  509s
  2004  1218 18718.6899   32  595 18727.0000 18690.8917  0.19%  2930  515s
  2023  1219 18725.7635   34  515 18727.0000 18692.1233  0.19%  2952  523s
  2044  1225 18698.0112   18 1047 18727.0000 18692.1233  0.19%  2972  530s
  2065  1238 18704.3193   20  971 18727.0000 18692.1233  0.19%  2999  537s
  2091  1249 18706.4170   22  933 18727.0000 18692.1233  0.19%  3007  543s
  2115  1246     cutoff   24      18727.0000 18692.1233  0.19%  3032  552s
  2141  1249     cutoff   25      18727.0000 18692.1233  0.19%  3060  558s
  2175  1255 18720.1194   25  799 18727.0000 18692.1233  0.19%  3061  566s
  2203  1267     cutoff   28      18727.0000 18692.1233  0.19%  3070  572s
  2236  1272     cutoff   28      18727.0000 18692.1233  0.19%  3077  582s
  2260  1288     cutoff   33      18727.0000 18692.1233  0.19%  3078  587s

Cutting planes:
  Cover: 4
  Clique: 196
  MIR: 444
  StrongCG: 248
  Flow cover: 213
  GUB cover: 173
  Zero half: 6
  Mod-K: 4

Explored 2292 nodes (7404977 simplex iterations) in 587.01 seconds (1751.76 work units)
Thread count was 8 (of 8 available processors)

Solution count 10: 18727 18728 18728 ... 18762

Time limit reached
Best objective 1.872700000000e+04, best bound 1.869300000000e+04, gap 0.1816%
